 $CONTRL SCFTYP=RHF RUNTYP=ENERGY MPLEVL=2 MAXIT=20 MULT=1 ISPHER=1  $END
 $SYSTEM mwords=2000 MEMDDI=100000 PARALL=.TRUE. $END
 $mp2    code=gpurimp2 $end
 $auxbas cabnam=ccd $end
 $BASIS GBASIS=CCD $END
 $SCF DIRSCF=.TRUE. $END
 $DATA 
Title
C1
O     8.0   298.29800   299.89600   300.18100
H     1.0   298.44299   299.25400   300.88599
H     1.0   297.70099   299.51300   299.52899
O     8.0   300.57700   301.33801   299.74600
H     1.0   300.41000   302.06799   299.13599
H     1.0   299.76801   300.81299   299.82700
O     8.0   302.16101   299.67599   298.31400
H     1.0   301.55701   300.05801   298.96100
H     1.0   302.25900   300.29999   297.58701
O     8.0   298.91800   298.09299   302.16501
H     1.0   298.00400   297.80801   302.26901
H     1.0   299.43600   297.36401   301.80499
O     8.0   302.47699   299.69601   302.20700
H     1.0   301.76501   299.65500   302.85101
H     1.0   302.87000   300.57101   302.22800
O     8.0   300.49899   302.44501   302.25299
H     1.0   300.47299   301.70200   302.84799
H     1.0   300.59500   302.11600   301.35001
O     8.0   297.35501   302.33701   298.14200
H     1.0   296.73199   302.70300   297.51599
H     1.0   297.52399   301.42999   297.89301
O     8.0   302.85501   297.62201   300.50400
H     1.0   302.95099   297.80399   299.57300
H     1.0   302.63501   298.44699   300.95599
O     8.0   299.83600   303.46100   298.20801
H     1.0   300.15399   303.58401   297.30801
H     1.0   298.90100   303.23001   298.16599
O     8.0   300.57401   296.20599   301.07501
H     1.0   301.42001   296.60599   300.83801
H     1.0   300.73700   295.31000   301.38699
O     8.0   296.55899   298.87601   298.28699
H     1.0   296.20999   299.47400   297.63101
H     1.0   296.96100   298.12900   297.82800
O     8.0   304.07401   301.87900   299.56500
H     1.0   303.19800   301.92801   299.19000
H     1.0   303.98901   301.85400   300.52600
O     8.0   300.52301   299.15601   304.04300
H     1.0   299.80200   298.74701   303.54700
H     1.0   300.15100   299.64801   304.77100
O     8.0   296.14600   302.11099   301.08801
H     1.0   296.36301   301.74100   301.95001
H     1.0   296.64600   301.63400   300.42899
O     8.0   302.05099   297.34399   296.88800
H     1.0   302.00800   298.09201   297.49500
H     1.0   302.94400   297.29999   296.52399
O     8.0   302.29001   301.52399   296.29599
H     1.0   302.22000   302.46600   296.43100
H     1.0   301.74301   301.28799   295.54999
O     8.0   296.31699   297.65601   301.74701
H     1.0   296.06699   296.92899   301.18500
H     1.0   295.57999   297.85599   302.33301
O     8.0   296.73300   300.92401   303.49701
H     1.0   297.48700   300.33899   303.49100
H     1.0   296.00400   300.46399   303.93399
O     8.0   299.78000   297.81000   295.52499
H     1.0   300.64999   297.49799   295.79999
H     1.0   299.79501   298.77200   295.46701
O     8.0   303.54501   302.23499   302.21600
H     1.0   304.27399   302.49799   302.78799
H     1.0   302.84500   302.88199   302.29099
O     8.0   299.03201   295.38599   299.02200
H     1.0   299.44400   295.89200   299.73401
H     1.0   299.72900   294.86801   298.59601
O     8.0   302.01999   304.81400   300.69800
H     1.0   301.57999   304.35800   299.98499
H     1.0   301.74701   305.73901   300.67001
O     8.0   297.81299   304.96100   300.45499
H     1.0   298.46899   304.30301   300.24100
H     1.0   297.55399   304.83200   301.36499
O     8.0   297.77802   296.76099   297.03799
H     1.0   298.40701   297.10400   296.39099
H     1.0   298.27600   296.37299   297.76999
O     8.0   299.37000   300.43701   295.01901
H     1.0   299.69299   300.95200   294.27399
H     1.0   298.43301   300.62100   295.13699
O     8.0   305.27899   299.76901   298.26801
H     1.0   304.53699   299.31601   297.87100
H     1.0   304.94299   300.50201   298.79599
O     8.0   296.75299   301.02499   295.55499
H     1.0   296.51599   301.94299   295.37799
H     1.0   295.98099   300.46899   295.42300
O     8.0   301.37601   294.88901   297.89999
H     1.0   302.14600   294.72501   298.45700
H     1.0   301.51901   295.72400   297.44101
O     8.0   302.62100   297.51901   304.73300
H     1.0   301.83899   298.03799   304.52499
H     1.0   302.73599   296.83801   304.06000
O     8.0   301.92001   301.96500   305.26801
H     1.0   301.15799   301.51199   305.65302
H     1.0   302.11200   302.73199   305.82001
O     8.0   296.62500   294.73599   300.07700
H     1.0   295.99100   295.21899   299.53101
H     1.0   297.48599   294.73199   299.64301
O     8.0   300.98499   304.58401   303.69901
H     1.0   300.68900   304.10400   302.91400
H     1.0   301.82401   304.21600   303.96701
O     8.0   300.38101   304.02499   295.59500
H     1.0   301.26501   304.37701   295.42499
H     1.0   300.18100   303.36499   294.92001
O     8.0   305.38901   297.25699   301.48801
H     1.0   304.46100   297.27600   301.23099
H     1.0   305.51901   297.88699   302.20401
O     8.0   305.16699   298.96799   303.62201
H     1.0   305.13901   299.73999   304.19501
H     1.0   304.26901   298.67099   303.48801
O     8.0   298.02399   299.31699   305.92099
H     1.0   298.44101   300.06900   306.35599
H     1.0   298.09799   298.54999   306.49701
O     8.0   300.77100   293.54199   301.10101
H     1.0   301.24899   292.83600   301.52802
H     1.0   300.14801   293.15900   300.48801
O     8.0   295.42401   304.67499   299.19299
H     1.0   295.14700   303.78299   299.39700
H     1.0   296.34900   304.76599   299.45999
O     8.0   304.69800   297.42300   296.28900
H     1.0   305.26501   296.74399   296.67801
H     1.0   304.95801   297.54999   295.38000
O     8.0   296.99899   303.17499   305.04099
H     1.0   296.84900   303.99200   304.55200
H     1.0   296.99301   302.43600   304.42099
O     8.0   302.73801   295.18201   303.40100
H     1.0   301.83899   294.85001   303.51599
H     1.0   303.33200   294.55301   303.80301
O     8.0   304.41501   301.02701   305.24899
H     1.0   304.80499   301.84900   304.96100
H     1.0   303.45599   301.08401   305.12201
O     8.0   293.43600   301.92999   300.70001
H     1.0   294.38901   302.00101   300.81799
H     1.0   293.04099   301.73001   301.55399
O     8.0   297.54901   305.35999   303.62100
H     1.0   298.38101   305.70901   303.93100
H     1.0   296.92599   306.09601   303.54401
O     8.0   300.29300   294.52600   304.36499
H     1.0   300.04800   293.62601   304.15799
H     1.0   299.54700   295.08701   304.16901
O     8.0   295.40302   299.37500   305.21301
H     1.0   294.70300   299.13599   305.83200
H     1.0   296.26501   299.20801   305.61401
O     8.0   299.45099   304.02399   305.91199
H     1.0   299.92801   304.17300   305.08899
H     1.0   298.56000   303.72101   305.70001
O     8.0   294.12900   297.87500   303.35001
H     1.0   293.33301   298.29501   303.00900
H     1.0   294.41501   298.32800   304.15500
O     8.0   294.70901   295.90601   298.49200
H     1.0   294.94000   295.34201   297.74200
H     1.0   294.88901   296.81201   298.25000
O     8.0   296.66101   303.73099   295.23001
H     1.0   296.89301   304.00201   294.33701
H     1.0   296.06601   304.38800   295.60599
O     8.0   298.91101   306.13599   296.32700
H     1.0   298.48099   305.82199   297.11600
H     1.0   299.22400   305.36801   295.82999
O     8.0   300.47699   302.36600   293.46399
H     1.0   300.04401   302.86401   292.75800
H     1.0   301.37701   302.18799   293.19901
O     8.0   294.13699   302.24399   296.33401
H     1.0   293.76599   302.07300   295.45901
H     1.0   294.27899   303.18201   296.42300
O     8.0   294.60199   299.30499   295.36099
H     1.0   294.50699   298.36099   295.51801
H     1.0   293.75699   299.71500   295.53101
O     8.0   297.41199   294.55099   304.87100
H     1.0   297.06500   294.22299   304.03299
H     1.0   296.76300   295.12000   305.26999
O     8.0   292.57101   301.15601   298.25500
H     1.0   293.28201   301.45700   297.67999
H     1.0   292.85199   301.24600   299.17300
O     8.0   299.86700   301.08801   306.83701
H     1.0   299.42300   301.89600   307.08801
H     1.0   300.37601   300.77701   307.59900
O     8.0   298.29001   297.62201   293.25299
H     1.0   297.54700   297.04300   293.46399
H     1.0   298.87100   297.67300   294.02200
O     8.0   296.17499   294.62601   296.66800
H     1.0   296.64001   293.84000   296.94199
H     1.0   296.81699   295.34299   296.57001
O     8.0   296.82001   293.40601   302.45599
H     1.0   296.61099   293.90601   301.65601
H     1.0   297.48599   292.75500   302.24701
O     8.0   297.69601   299.86499   292.01199
H     1.0   297.10300   299.45700   291.36899
H     1.0   297.78500   299.27600   292.77100
O     8.0   302.38599   299.90500   292.61499
H     1.0   301.59799   299.83499   292.06500
H     1.0   302.86700   299.08301   292.56601
O     8.0   298.23999   292.11899   298.95001
H     1.0   298.70700   291.54999   299.57199
H     1.0   297.29599   292.03601   299.11600
O     8.0   296.21301   295.91101   293.82401
H     1.0   296.56799   295.04800   294.08099
H     1.0   295.55899   296.17300   294.46500
O     8.0   293.43399   297.00000   295.98001
H     1.0   292.75400   297.14301   296.63199
H     1.0   293.44400   296.06601   295.74301
O     8.0   295.02600   305.46399   296.59698
H     1.0   294.11600   305.68500   296.36899
H     1.0   295.07401   305.28201   297.54001
O     8.0   294.04401   294.07001   300.92801
H     1.0   293.83499   294.34698   301.82599
H     1.0   294.95200   294.32401   300.73599
O     8.0   294.28601   305.51001   303.56100
H     1.0   294.57800   306.34698   303.91199
H     1.0   294.26001   305.58801   302.60001
O     8.0   302.81799   295.91800   306.90500
H     1.0   303.70499   295.60199   306.77701
H     1.0   302.60901   296.49301   306.16101
O     8.0   297.83801   297.07001   307.46201
H     1.0   297.39401   297.12201   308.30301
H     1.0   298.57999   296.46301   307.54800
O     8.0   292.32599   301.75299   303.19800
H     1.0   292.77899   301.77399   304.04800
H     1.0   291.50500   301.24701   303.28699
O     8.0   300.16101   300.06299   291.01199
H     1.0   299.37000   300.18600   291.55499
H     1.0   300.02301   299.29700   290.45901
O     8.0   293.63300   295.18600   303.39499
H     1.0   293.82599   296.13000   303.41699
H     1.0   294.01300   294.77701   304.18201
O     8.0   297.22198   304.35699   292.60901
H     1.0   296.95999   303.61099   292.05701
H     1.0   298.15302   304.54099   292.43701
O     8.0   296.60199   302.09399   307.52701
H     1.0   296.60999   302.54001   306.67599
H     1.0   297.01599   302.66599   308.18301
O     8.0   298.57999   292.26300   296.23401
H     1.0   299.50000   292.27899   295.95099
H     1.0   298.54800   292.26700   297.19601
O     8.0   291.78900   298.75201   302.21301
H     1.0   291.57401   299.67999   302.30801
H     1.0   291.52899   298.46899   301.32999
O     8.0   294.37201   306.42099   301.01901
H     1.0   295.01001   307.14001   301.00101
H     1.0   294.59299   305.80301   300.31400
O     8.0   293.65399   301.86499   305.63800
H     1.0   293.56201   301.51099   306.53799
H     1.0   294.55701   301.72000   305.35800
O     8.0   300.02301   295.40100   307.65900
H     1.0   300.71301   295.81900   308.17300
H     1.0   300.36401   295.21701   306.78400
O     8.0   291.30701   298.86600   297.50201
H     1.0   290.61899   299.05499   296.86899
H     1.0   291.80499   299.67599   297.66501
O     8.0   297.48199   293.53900   294.07999
H     1.0   297.49301   292.89001   293.37299
H     1.0   297.74200   293.11200   294.90201
O     8.0   299.99399   296.69699   291.34299
H     1.0   299.40500   296.92001   292.07700
H     1.0   299.67499   297.13901   290.56000
O     8.0   299.68201   304.15100   291.58701
H     1.0   299.64099   303.66400   290.75201
H     1.0   300.41699   304.75900   291.54099
O     8.0   299.41101   290.90100   301.09100
H     1.0   298.98401   290.86600   301.95300
H     1.0   299.76700   290.03900   300.89600
O     8.0   295.59799   291.49500   299.26001
H     1.0   295.03799   292.07800   299.76700
H     1.0   295.14401   291.26999   298.43701
O     8.0   292.87500   301.92401   293.91901
H     1.0   292.77600   302.85501   293.67801
H     1.0   292.00900   301.57599   294.16501
O     8.0   294.22501   300.20401   292.36899
H     1.0   293.63101   300.91501   292.64001
H     1.0   294.76501   299.97198   293.12201
O     8.0   293.39899   298.29501   306.67099
H     1.0   292.49899   298.56799   306.46301
H     1.0   293.38000   297.35800   306.89499
O     8.0   290.45001   302.79901   297.74301
H     1.0   291.28101   302.33701   297.89999
H     1.0   289.75299   302.30600   298.18301
O     8.0   291.10901   303.87000   302.05499
H     1.0   291.49600   303.75900   301.19299
H     1.0   291.62799   303.34399   302.67499
O     8.0   294.47400   294.05099   305.75900
H     1.0   295.11600   293.84399   306.44601
H     1.0   294.35001   293.26801   305.20901
O     8.0   291.43201   295.60300   299.31400
H     1.0   291.04199   296.44000   299.59799
H     1.0   292.38400   295.68799   299.33401
O     8.0   301.10501   292.26300   306.68500
H     1.0   301.08801   291.48001   307.22900
H     1.0   301.34100   293.00699   307.23700
O     8.0   298.46399   292.27399   305.86099
H     1.0   298.01300   293.12000   305.76401
H     1.0   299.37000   292.43500   306.14099
O     8.0   294.75299   292.20901   303.83499
H     1.0   295.42099   292.59799   303.26300
H     1.0   294.01099   291.93100   303.28900
O     8.0   290.45901   298.07401   299.94901
H     1.0   290.65500   298.48999   299.09698
H     1.0   289.52899   298.16901   300.12900
O     8.0   298.28699   290.75000   303.59100
H     1.0   297.44601   290.31400   303.69501
H     1.0   298.43900   291.30200   304.36600
O     8.0   296.88101   302.22601   290.92700
H     1.0   297.01801   301.41699   291.43600
H     1.0   297.31799   302.13000   290.07401
O     8.0   293.29599   294.29199   295.65201
H     1.0   292.88199   293.93799   296.45001
H     1.0   294.13199   293.84900   295.52200
O     8.0   292.72501   293.14999   298.05399
H     1.0   291.80301   293.15302   298.30301
H     1.0   293.23401   293.52701   298.77200
O     8.0   296.43100   295.58401   291.20599
H     1.0   297.20401   295.08701   291.45700
H     1.0   295.99500   295.86600   292.01801
O     8.0   295.34000   306.32800   292.82501
H     1.0   296.09000   305.72900   292.88000
H     1.0   295.25201   306.63101   291.91599
O     8.0   295.67999   299.06201   290.38300
H     1.0   295.51001   298.12399   290.35599
H     1.0   294.96301   299.48099   290.87701
O     8.0   292.65201   304.62701   293.77802
H     1.0   292.33099   305.00900   294.60101
H     1.0   293.42599   305.12100   293.52301
O     8.0   290.76599   298.76501   306.06299
H     1.0   290.53400   299.68701   305.92499
H     1.0   290.38000   298.23199   305.35599
O     8.0   294.07999   301.38599   308.22601
H     1.0   293.73099   302.04199   308.81900
H     1.0   295.02899   301.53299   308.13000
O     8.0   289.72101   301.15201   303.01700
H     1.0   289.31000   301.11899   303.87601
H     1.0   289.49899   301.98599   302.60901
O     8.0   290.90900   301.46500   305.84900
H     1.0   291.85800   301.55701   305.98099
H     1.0   290.52100   302.33401   305.86200
O     8.0   290.44101   296.42099   294.87799
H     1.0   290.22198   295.94699   294.07700
H     1.0   291.17401   297.00201   294.68399
O     8.0   290.90100   294.93799   303.52200
H     1.0   291.85999   295.01999   303.43701
H     1.0   290.56900   294.44400   302.76700
O     8.0   290.50000   293.75201   301.10400
H     1.0   290.92999   294.34500   300.47501
H     1.0   289.64899   293.51099   300.75699
O     8.0   289.93500   297.47400   303.81000
H     1.0   290.57901   297.87500   303.21799
H     1.0   290.10001   296.52600   303.82800
O     8.0   295.98700   293.18500   307.86499
H     1.0   296.56799   293.77600   308.33701
H     1.0   296.44601   292.35800   307.74399
O     8.0   292.83301   295.69901   307.23199
H     1.0   293.32501   295.05600   306.71100
H     1.0   291.89499   295.54700   307.07501
O     8.0   292.99500   297.94601   291.32599
H     1.0   292.14600   297.87100   291.76700
H     1.0   293.41101   298.76199   291.62601
O     8.0   290.40900   301.12100   294.82599
H     1.0   290.03699   301.82300   295.35400
H     1.0   289.82101   300.94601   294.09500
O     8.0   291.89700   294.34201   293.29099
H     1.0   292.25101   294.26401   294.17999
H     1.0   292.60501   294.56400   292.69601
O     8.0   290.32001   294.65900   296.98199
H     1.0   290.50601   295.16199   296.18500
H     1.0   290.67300   295.14001   297.73499
O     8.0   294.44101   302.74399   289.89001
H     1.0   295.20599   302.64600   290.47000
H     1.0   294.38101   301.95801   289.35599
O     8.0   290.69199   298.50000   292.63699
H     1.0   290.75201   299.43500   292.40900
H     1.0   289.86801   298.16599   292.29999
O     8.0   290.47601   300.99600   291.59100
H     1.0   291.14001   301.69000   291.67999
H     1.0   290.23199   300.94901   290.67200
O     8.0   297.47800   301.65100   288.33701
H     1.0   296.89999   302.10199   287.73001
H     1.0   297.51599   300.73199   288.08701
O     8.0   295.12299   307.03601   290.17499
H     1.0   295.06799   306.23001   289.66800
H     1.0   295.91599   307.49301   289.90302
O     8.0   291.97299   303.12100   291.02802
H     1.0   292.85901   303.02802   290.66199
H     1.0   291.94699   303.91000   291.55801
 $END
