 $CONTRL SCFTYP=RHF RUNTYP=ENERGY MPLEVL=2 MAXIT=20 MULT=1 ISPHER=1  $END
 $SYSTEM mwords=2000 MEMDDI=100000 PARALL=.TRUE. $END
 $mp2    code=gpurimp2 $end
 $auxbas cabnam=ccd $end
 $BASIS GBASIS=CCD $END
 $SCF DIRSCF=.TRUE. $END
 $DATA 
Title
C1
O     8.0   103.66200   102.96200    95.66500
H     1.0   104.56900   102.98100    96.08800
H     1.0   103.11800   102.23000    96.07600
O     8.0   101.49500    96.99700    93.05000
H     1.0   100.61600    97.20900    93.47800
H     1.0   101.53300    96.02200    92.83100
O     8.0    97.87400   103.01700   100.81600
H     1.0    98.12900   103.03800    99.84900
H     1.0    97.17400   102.31700   100.96000
O     8.0   100.64500   100.16900    95.89100
H     1.0   101.49100   100.30500    96.40600
H     1.0    99.88900   100.61800    96.36800
O     8.0    99.81400   100.83500   101.23200
H     1.0    99.32900    99.97700   101.06300
H     1.0    99.15200   101.56100   101.41400
O     8.0    98.80400    98.51200    97.75800
H     1.0    99.78200    98.64700    97.91700
H     1.0    98.42200    99.32600    97.32100
O     8.0   100.74700   100.16400   103.73600
H     1.0   100.65800   100.62800   102.85500
H     1.0   100.10500    99.39900   103.77600
O     8.0    98.07000    98.51700   100.43800
H     1.0    97.17300    98.87900   100.69000
H     1.0    98.19400    98.59200    99.44800
O     8.0   101.32100    92.44000    94.59700
H     1.0   100.82800    92.91800    93.87000
H     1.0   100.67600    91.89500    95.13400
O     8.0    96.37400    99.16800   103.66300
H     1.0    96.03300    99.38500   104.57800
H     1.0    97.33800    98.91000   103.72000
O     8.0    96.74100   101.64100    95.24700
H     1.0    95.76500   101.62500    95.02800
H     1.0    97.25600   101.95700    94.45000
O     8.0    96.85600    95.63900   102.75900
H     1.0    96.15700    96.25000   102.38600
H     1.0    97.74200    95.85700   102.34900
O     8.0    97.20900    95.90700    94.27900
H     1.0    97.08700    95.81300    93.29100
H     1.0    98.01500    96.46900    94.46400
O     8.0   103.96900    95.81000   100.61100
H     1.0   104.65600    95.77200   101.33600
H     1.0   103.15200    96.27600   100.95000
O     8.0   100.37700    94.63900    92.01600
H     1.0   100.54000    94.79900    91.04300
H     1.0    99.77600    93.84800    92.12800
O     8.0   101.99300   104.01400    93.99900
H     1.0   102.58000   103.87700    94.79700
H     1.0   102.06600   103.22200    93.39200
O     8.0    98.54800   101.26500    97.24900
H     1.0    98.68900   102.14000    97.71100
H     1.0    97.92000   101.39100    96.48100
O     8.0   104.72700    95.43600    98.03900
H     1.0   103.94700    95.06600    97.53500
H     1.0   104.49600    95.50500    99.00900
O     8.0   103.89800    98.42800    99.98400
H     1.0   103.01500    98.65500    99.57400
H     1.0   104.12800    97.47700    99.77600
O     8.0    99.16700    96.44200   101.72300
H     1.0    98.84300    97.20700   101.16600
H     1.0    99.64400    95.78400   101.14100
O     8.0   102.89100   100.84200    97.47800
H     1.0   103.83700   100.66200    97.21000
H     1.0   102.86800   101.16600    98.42300
O     8.0    96.22700   100.99000   101.69800
H     1.0    96.14900   100.42200   102.51700
H     1.0    95.31400   101.23700   101.37500
O     8.0    92.63900    96.95600    97.82900
H     1.0    93.62900    97.09300    97.86600
H     1.0    92.44300    96.00800    97.57500
O     8.0    95.27800    97.16900    98.96600
H     1.0    95.14500    97.37700    99.93500
H     1.0    95.58800    97.99100    98.48800
O     8.0    98.86500    98.22200   103.91700
H     1.0    98.95000    97.46300   103.27200
H     1.0    99.05500    97.89600   104.84300
O     8.0   104.57800   100.03500   101.95200
H     1.0   104.41900   101.01100   101.80200
H     1.0   104.20600    99.51500   101.18400
O     8.0    96.79800    93.94400   100.56800
H     1.0    97.50800    94.48700   100.11900
H     1.0    96.98200    93.90000   101.55000
O     8.0    95.11900    97.70100   101.79700
H     1.0    94.17100    97.42400   101.95700
H     1.0    95.37700    98.40300   102.46000
O     8.0   103.39500    93.76400    96.08900
H     1.0   102.54100    93.36100    95.75900
H     1.0   103.75300    94.39600    95.40100
O     8.0   103.86700    98.22900    93.49200
H     1.0   103.00700    97.73300    93.37200
H     1.0   103.97100    98.89900    92.75700
O     8.0   105.65400   100.60600    97.05100
H     1.0   105.81700    99.91700    96.34500
H     1.0   105.59900   100.16000    97.94500
O     8.0    98.70800   103.75200    98.24400
H     1.0    98.39700   104.23400    97.42500
H     1.0    99.59900   104.11100    98.52400
O     8.0   104.52900    95.23900    94.08800
H     1.0   104.55200    94.92300    93.13900
H     1.0   104.08700    96.13400    94.13200
O     8.0   106.05200    98.65400    95.23600
H     1.0   106.52800    97.77900    95.14800
H     1.0   105.74700    98.95900    94.33400
O     8.0   100.12500   101.87000    92.89400
H     1.0    99.42900   101.29800    92.46000
H     1.0    99.89700   101.99600    93.86000
O     8.0   102.16000    94.35000    98.74700
H     1.0   102.52700    93.53400    98.29900
H     1.0   102.43600    94.35500    99.70800
O     8.0    97.89400    93.63600    97.70500
H     1.0    96.92200    93.46200    97.54900
H     1.0    98.23200    94.27900    97.01700
O     8.0    98.77200   100.73900   106.19700
H     1.0    99.39800   101.17800   106.84000
H     1.0    99.29700   100.23100   105.51400
O     8.0    94.44400    94.65100    99.37400
H     1.0    95.29400    94.30200    99.76800
H     1.0    94.46400    95.65100    99.37100
O     8.0   103.45400    97.59000    96.42200
H     1.0   103.88500    98.13500    95.70300
H     1.0   104.14200    97.01000    96.85800
O     8.0    95.63000    99.99700    98.24500
H     1.0    96.54000   100.41000    98.26900
H     1.0    94.98300   100.63800    97.83500
O     8.0    99.50600    94.60000    99.76200
H     1.0    98.91500    94.23000    99.04500
H     1.0   100.45500    94.59700    99.44700
O     8.0   102.36000   101.55100    99.96500
H     1.0   102.67500   102.37000   100.44400
H     1.0   101.55600   101.18000   100.43000
O     8.0    99.12900    95.98000    96.60200
H     1.0    99.03700    96.94200    96.86100
H     1.0   100.09700    95.72900    96.58800
O     8.0    99.48300    98.23700    94.25700
H     1.0    98.96800    98.76400    93.58000
H     1.0   100.01800    98.85900    94.82700
O     8.0   106.34100    99.34200    99.39500
H     1.0   105.47100    98.93000    99.66600
H     1.0   107.04000    99.12000   100.07500
O     8.0    95.15400    95.84000    96.17200
H     1.0    95.97400    95.82100    95.59900
H     1.0    95.41400    96.02700    97.11900
O     8.0   101.83600    97.44700   102.11000
H     1.0   100.86000    97.39700   101.89800
H     1.0   101.99100    97.13300   103.04700
O     8.0   101.66500    98.31600    98.31900
H     1.0   101.90400    99.23400    98.00200
H     1.0   102.22400    97.64100    97.83800
O     8.0    99.98500   103.27200   102.30700
H     1.0    99.64100   103.10400   103.23100
H     1.0    99.21600   103.45300   101.69300
 $END
